n = 25;
lu = [|-594, 147
      |-187, -1
      |-539, 344
      |-554, -102
      |1, 531
      |-429, 243
      |-371, 580
      |-222, 554
      |21, 424
      |-255, 498
      |109, 427
      |336, 449
      |-424, -413
      |568, 604
      |104, 223
      |-238, 98
      |-296, 318
      |-481, -477
      |201, 528
      |-483, 429
      |-543, -365
      |-273, 485
      |-467, 566
      |-173, 243
      |290, 521|];
